JOBS = 1..6;
MACHINES = 1..4;
SPEED = 1;
time = array3d(JOBS,MACHINES,1..SPEED,[89,42,28,98,47,67,53,53,16,58,34,96,49,80,16,63,25,85,45,69,51,96,46,29]);
energy = array3d(JOBS,MACHINES,1..SPEED,[41,65,75,37,62,51,58,58,85,55,71,38,61,44,85,53,77,42,63,50,60,38,63,74]);
precedence = array2d(JOBS,MACHINES,[1,3,0,2,0,2,3,1,0,1,2,3,1,0,3,2,1,2,3,0,0,1,3,2]);
ME = 1;
TE = 139;
st_old = array2d(JOBS,MACHINES,[147,398,0,243,51,185,257,98,236,252,310,344,98,0,214,151,273,310,395,0,0,89,344,214]);
SpeedScaling = array2d(JOBS,MACHINES,[1,1,1,1,1,1,1,1,1,1,1,1,1,1,1,1,1,1,1,1,1,1,1,1]);
